Geometry = GenFormat {
48  S
Li   P    S    Cl
1      1      3.222467392448324      0.294363504998464      6.989082342098867
2      1      3.440902145267188      0.020981906667445      3.084243304243956
3      1      7.100772511830976      3.294242827905541      0.304271572943113
4      1      7.305736778718432      7.064831068952778     -0.015294935194946
5      1      0.332287307993567      7.149958228042912      3.341249069664679
6      1     10.036476858790547      6.994599948591245      7.195408179499482
7      1     -0.112779544591108      3.289334824023640      7.092260670595201
8      1      3.734300186920968      5.449872282545518      1.741652876645296
9      1      7.048008907302187      8.534147474060354      5.396446563516471
10     1      6.752601492609063      1.841181361149433      4.899553502884107
11     1      3.268196106304220      8.095497275371434      5.007707351312717
12     1      0.025061966033741      2.226401175732099      2.121867639980605
13     1      8.374560505630120      0.016172678448716      1.829116489929989
14     1      8.514025630612533     10.309696225407981      8.576062865002024
15     1      2.338396048275552      4.012673000940532      5.299713455673748
16     1      4.923786074510001      3.469421379023734      8.204876619977272
17     1      8.352019065936757      4.870108819959603      3.680133401417850
18     1      1.768261394711340      8.741486120214141      0.177628517553648
19     1      1.855196493089029      2.077106345511026      9.990056061563228
20     1      5.106076652036555      7.075899920881373      8.295827121513176
21     2      0.008568985902785     -0.012380638873788      5.164222041111943
22     2      5.137634005207624      0.063476224788482     -0.140720166636016
23     2      0.053559953300484      5.238851418784863      0.081765860109066
24     2      5.310065415711872      5.115019725736366      5.059094796218698
25     3      1.208148044819842      9.074509290876703      6.405809583439107
26     3      9.026377410725996      1.161728234675873      6.359047442947962
27     3      9.163381002488752      9.116932627897626      3.907847451943680
28     3      1.329632908828589      1.291191127697737      4.070081353137096
29     3      6.381060368529782      1.357468150834041      9.024451968435953
30     3      6.313003843549262      9.173930150880777      1.121825880542866
31     3      3.860093946198052      9.215124453121701      8.999564149531126
32     3      3.881809732856412      1.355231197824221      1.022134569276765
33     3      9.159648806988050      6.256117761566588      1.516732266828585
34     3      1.118723739978080      6.625979336427537      9.242538147962035
35     3      9.191412875679198      3.970223776887003      9.280460006627267
36     3      1.491804150936212      4.073770364904175      1.221018583057837
37     3      6.385925445501331      6.563186426183093      3.904630591203366
38     3      6.641302507117419      3.981798526590203      6.312101671382866
39     3      4.290104291219696      3.792439689767519      3.703140952021028
40     3      3.810371926270657      6.048279122205864      6.350387760341963
41     4      2.485161620871151      2.618358692599215      7.616773183381254
42     4      7.679105029733035      7.916352993736101      7.858548030271351
43     4      4.973542538507885     -0.244370305822450      5.137600482235442
44     4      5.419599977630542      5.282110468486021     -0.271259896469518
45     4     -0.052215064716066      0.273252370834303      0.174698941298405
46     4      0.031544383080721      5.204927202565613      5.274466890607743
47     4      7.976206663280315      2.469503355646383      2.595619414727565
48     4      2.595185578044690      7.901133305305806      2.585193778958839
0.000000000000000      0.000000000000000      0.000000000000000
10.392899751674999      0.000000000000000      0.000000000000000
0.000000000000000     10.392899751674999      0.000000000000000
0.000000000000000      0.000000000000000     10.392899751674999
}
Driver = {}
Hamiltonian = DFTB {
  SCC = Yes
  SccTolerance = 1.0e-10
  MaxAngularMomentum = {
    Li = "p"
    P = "d"
    S = "d"
    Cl = "d"
  }
  Filling = Fermi {
    Temperature [Kelvin] = 300
    IndependentKFilling = No
  }
  SlaterKosterFiles = Type2FileNames {
    Prefix = "../../slko/"
    Separator = "-"
    Suffix = ".skf"
    LowerCaseTypeName = No
  }
  KPointsAndWeights = SupercellFolding {
5 0 0
0 5 0
0 0 5
0.5 0.5 0.5
  }
  Differentiation = FiniteDiff {
    Delta = 1.0000000000000000E-002
  }
  PolynomialRepulsive = {}
  ShellResolvedSCC = No
  OldSKInterpolation = No
  RangeSeparated = None {}
  ReadInitialCharges = No
  InitialCharges = {}
  EwaldParameter = 0.0000000000000000
  EwaldTolerance = 1.0000000000000001E-009
  ConvergentSCCOnly = Yes
  HCorrection = None {}
  SpinPolarisation = {}
  ElectricField = {}
  Solver = RelativelyRobust {}
  Charge = 0.0000000000000000
  MaxSCCIterations = 100
  OnSiteCorrection = {}
  Dispersion = {}
  Solvation = {}
  Electrostatics = GammaFunctional {}
  ThirdOrder = No
  ThirdOrderFull = No
  ForceEvaluation = "Traditional"
  Mixer = Broyden {
    MixingParameter = 0.20000000000000001
    InverseJacobiWeight = 1.0000000000000000E-002
    MinimalWeight = 1.0000000000000000
    MaximalWeight = 100000.00000000000
    WeightFactor = 1.0000000000000000E-002
  }
}
Options = {
  WriteAutotestTag = Yes
  WriteDetailedOut = Yes
  WriteDetailedXML = No
  WriteResultsTag = No
  RestartFrequency = 20
  RandomSeed = 0
  WriteHS = No
  WriteRealHS = No
  MinimiseMemoryUsage = No
  ShowFoldedCoords = No
  TimingVerbosity = 1
  WriteChargesAsText = No
}
ParserOptions = {
  ParserVersion = 11
  WriteHSDInput = Yes
  StopAfterParsing = No
  IgnoreUnprocessedNodes = No
}
Analysis = {
  MullikenAnalysis = Yes
  AtomResolvedEnergies = Yes
  CalculateForces = Yes
  ProjectStates = {}
  WriteEigenvectors = No
  WriteBandOut = Yes
  WriteNetCharges = No
}
Reks = None {}
ExcitedState = {}
