Geometry = GenFormat {
48  S
Li   P    S    Cl
1      1      3.069016564236498      0.280346195236633      6.656268897237016
2      1      3.277049662159226      0.019982768254709      2.937374575470434
3      1      6.762640487458072      3.137374121814800      0.289782450422012
4      1      6.957844551160410      6.728410541859788     -0.014566604947568
5      1      0.316464102851016      6.809484026707535      3.182141971109218
6      1      9.558549389324330      6.661523760563090      6.852769694761411
7      1     -0.107409090086770      3.132699832403466      6.754533971995429
8      1      3.556476368496160      5.190354554805254      1.658717025376472
9      1      6.712389435525893      8.127759499105100      5.139472917634734
10     1      6.431049040580060      1.753506058237555      4.666241431318197
11     1      3.112567720289733      7.709997405115651      4.769245096488302
12     1      0.023868539079754      2.120382072125808      2.020826323791053
13     1      7.975771910123924      0.015402550903539      1.742015704695228
14     1      8.108595838678603      9.818758309912363      8.167678919049546
15     1      2.227043855500526      3.821593334229077      5.047346148260712
16     1      4.689320070961906      2.930421083716546      6.014168209502164
17     1      7.954303872320721      4.638198876152003      3.504888953731286
18     1      1.684058471153657      8.325224876394419      0.169170016717760
19     1      1.766853802941932      1.978196519534311      9.514339106250693
20     1      4.862930144796719      6.738952305601307      7.900787734774453
21     2      0.008160938955033     -0.011791084641703      4.918306705820898
22     2      4.892984766864403      0.060453547417602     -0.134019206320015
23     2      0.051009479333794      4.989382303604631      0.077872247722920
24     2      5.057205157820830      4.871447357844159      4.818185520208283
25     3      1.150617185542707      8.642389800834955      6.100771031846769
26     3      8.596549914977139      1.106407842548450      6.056235659950440
27     3      8.727029526179763      8.682792978950120      3.721759478041600
28     3      1.266317056027228      1.229705835902607      3.876267955368662
29     3      6.077200350980745      1.292826810318134      8.594716160415192
30     3      6.012384612904058      8.737076334172167      1.068405600517016
31     3      3.676279948760050      8.776309002973049      8.571013475743930
32     3      3.696961650339440      1.290696378880210      0.973461494549300
33     3      8.723475054274333      5.958207391968179      1.444506920789128
34     3      1.065451180931505      6.310456510883369      8.802417283773366
35     3      8.753726548265902      3.781165501797146      8.838533339645016
36     3      1.420765858034488      3.879781299908738      1.162874841007464
37     3      6.081833757620315      6.250653739221994      3.718695801146063
38     3      6.325050006778493      3.792189072943050      6.011525401317015
39     3      4.085813610685425      3.611847323588113      3.526800906686693
40     3      3.628925644067292      5.760265830672251      6.047988343182822
41     4      2.366820591305858      2.493674945332585      7.254069698458337
42     4      7.313433361650509      7.539383803558191      7.484331457401286
43     4      4.736707179531319     -0.232733624592810      4.892952840224230
44     4      5.161523788219563      5.030581398558115     -0.258342758542398
45     4     -0.049728633062920      0.260240353175527      0.166379944093719
46     4      0.030042269600687      4.957073526252964      5.023301800578803
47     4      7.596387298362205      2.351907957758459      2.472018490216729
48     4      2.471605312423514      7.524888862196006      2.462089313294132
0.000000000000000      0.000000000000000      0.000000000000000
9.897999763500000      0.000000000000000      0.000000000000000
0.000000000000000      9.897999763500000      0.000000000000000
0.000000000000000      0.000000000000000      9.897999763500000
}
Driver = {}
Hamiltonian = DFTB {
  SCC = Yes
  SccTolerance = 1.0e-10
  MaxAngularMomentum = {
    Li = "p"
    P = "d"
    S = "d"
    Cl = "d"
  }
  Filling = Fermi {
    Temperature [Kelvin] = 300
    IndependentKFilling = No
  }
  SlaterKosterFiles = Type2FileNames {
    Prefix = "../../slko/"
    Separator = "-"
    Suffix = ".skf"
    LowerCaseTypeName = No
  }
  KPointsAndWeights = SupercellFolding {
2 0 0
0 2 0
0 0 2
0.5 0.5 0.5
  }
  Differentiation = FiniteDiff {
    Delta = 1.0000000000000000E-002
  }
  PolynomialRepulsive = {}
  ShellResolvedSCC = No
  OldSKInterpolation = No
  RangeSeparated = None {}
  ReadInitialCharges = No
  InitialCharges = {}
  EwaldParameter = 0.0000000000000000
  EwaldTolerance = 1.0000000000000001E-009
  ConvergentSCCOnly = Yes
  HCorrection = None {}
  SpinPolarisation = {}
  ElectricField = {}
  Solver = RelativelyRobust {}
  Charge = 0.0000000000000000
  MaxSCCIterations = 100
  OnSiteCorrection = {}
  Dispersion = {}
  Solvation = {}
  Electrostatics = GammaFunctional {}
  ThirdOrder = No
  ThirdOrderFull = No
  ForceEvaluation = "Traditional"
  Mixer = Broyden {
    MixingParameter = 0.20000000000000001
    InverseJacobiWeight = 1.0000000000000000E-002
    MinimalWeight = 1.0000000000000000
    MaximalWeight = 100000.00000000000
    WeightFactor = 1.0000000000000000E-002
  }
}
Options = {
  WriteAutotestTag = Yes
  WriteDetailedOut = Yes
  WriteDetailedXML = No
  WriteResultsTag = No
  RestartFrequency = 20
  RandomSeed = 0
  WriteHS = No
  WriteRealHS = No
  MinimiseMemoryUsage = No
  ShowFoldedCoords = No
  TimingVerbosity = 1
  WriteChargesAsText = No
}
ParserOptions = {
  ParserVersion = 11
  WriteHSDInput = Yes
  StopAfterParsing = No
  IgnoreUnprocessedNodes = No
}
Analysis = {
  MullikenAnalysis = Yes
  AtomResolvedEnergies = Yes
  CalculateForces = Yes
  ProjectStates = {}
  WriteEigenvectors = No
  WriteBandOut = Yes
  WriteNetCharges = No
}
Reks = None {}
ExcitedState = {}
